50

100 27 260
100 13 544
96 15 250
94 13 563
90 16 539
88 26 402
87 22 436
85 10 436
83 12 683
81 10 702
80 12 349
80 14 352
77 6 244
74 17 630
65 5 343
62 19 386
62 3 494
62 15 606
61 8 696
59 6 420
59 3 517
57 9 696
54 10 667
51 1 636
45 12 724
45 7 343
40 9 563
38 6 634
37 7 547
37 10 420
37 1 435
36 10 255
29 2 706
29 6 389
27 1 688
26 8 496
22 1 256
22 7 584
21 3 582
17 4 352
14 3 638
14 1 318
8 1 668
7 3 374
6 1 357
5 2 445
5 2 670
3 1 278
3 1 281
1 1 738
